70573688940658800305014,2,1,2,07,8,1,2,015,10,1,2,08,2,1,2,04,12,1,2,03,7,1,2,08,7,1,2,02,12,1,2,011,9,1,2,07,5,1,2,014,1,1,2,015,11,1,2,014,11,1,2,014,2,1,2,09,13,1,2,015,8,1,2,03,4,1,2,014,11,1,2,04,3,1,2,014,9,1,2,04,13,1,2,09,14,1,2,011,7,1,2,012,5,1,2,012,2,1,2,03,5,1,2,014,1,1,2,01,10,1,2,013,14,1,2,02,15,1,2,01,2,1,2,08,7,1,2,07,10,1,2,09,13,1,2,010,6,1,2,013,7,1,2,07,7,1,2,011,4,1,2,09,7,1,2,04,9,1,2,07,12,1,2,03,6,1,2,07,9,1,2,09,10,1,2,06,6,1,2,015,12,1,2,06,2,1,2,06,12,1,2,03,5,1,2,06,1,1,2,0